n = 8;
m = 17;
e = [|1, 2,|
      1, 3,|
      1, 4,|
      2, 3,|
      2, 5,|
      2, 6,|
      3, 5,|
      3, 6,|
      3, 7,|
      3, 4,|
      4, 6,|
      4, 7,|
      5, 6,|
      6, 7,|
      5, 8,|
      6, 8,|
      7, 8|];